benchmarks_vrp/CMT4/no_cluster/CMT4_5.vrp
NAME: CMT4_5
TYPE: CVRP
COMMENT: 1028.42 - Cluster Nr.5
DIMENSION: 15
CAPACITY: 200
EDGE_WEIGHT_TYPE: EUC_2D
NODE_COORD_TYPE: TWOD_COORDS
NODE_COORD_SECTION: 
3 42 7
4 51 21
6 49 11
9 46 13
2 55 5
13 59 15
7 45 20
5 35 35
14 55 20
15 47 16
8 39 10
1 46 10
11 45 10
10 44 17
12 53 12
DEPOT_SECTION: 
5
-1
DEMAND_SECTION: 
8 10
2 29
5 0
11 18
6 18
4 5
9 8
1 23
15 25
7 11
13 14
3 5
10 9
14 19
12 6
EOF
