benchmarks_vrp/CMT4/no_cluster/CMT4_5.tour
NAME: CMT4_5 solution
TYPE: TOUR
TOUR_SECTION:
5 4 14 13 12 2 6 1 11 3 8 9 15 10 7 -1
-1
EOF